HUN,8,6,5
4,8,2,14,3,22,0,23,5,8,1,18
4,10,1,19,0,21,5,8,2,28,3,30
1,23,3,19,2,24,5,7,0,13,4,16
5,11,1,28,3,1,4,19,2,15,0,24
1,6,0,20,2,11,5,17,4,21,3,24
0,9,3,30,1,27,4,29,5,9,2,7
4,25,3,29,1,23,5,18,0,30,2,18
2,14,1,8,0,7,3,1,5,1,4,19
